c CNF-Signature OR_17
c 
c $p 17 1
c $m (1,2,3,4,5,6,7,8,9,10,11,12,13,14,15,16,17,18)
c $i 1
c $i 2
c $i 3
c $i 4
c $i 5
c $i 6
c $i 7
c $i 8
c $i 9
c $i 10
c $i 11
c $i 12
c $i 13
c $i 14
c $i 15
c $i 16
c $i 17
c $o 18
p cnf 18 18
-1 18 0
-2 18 0
-3 18 0
-4 18 0
-5 18 0
-6 18 0
-7 18 0
-8 18 0
-9 18 0
-10 18 0
-11 18 0
-12 18 0
-13 18 0
-14 18 0
-15 18 0
-16 18 0
-17 18 0
1 2 3 4 5 6 7 8 9 10 11 12 13 14 15 16 17 -18 0
